50
19395

460 922
509 999
223 279
501 288
51 616
131 763
670 195
203 348
116 433
743 906
935 575
905 301
838 952
728 424
861 186
348 67
480 879
592 627
852 5
818 444
224 749
542 442
442 680
424 345
12 967
538 392
457 789
15 47
14 470
602 356
462 471
607 535
556 272
424 419
967 592
839 429
888 246
643 75
698 602
766 905
765 282
265 950
886 295
915 711
37 313
499 152
852 54
626 19
605 135
135 416
